24° run output:
{
    "Function": "kroB500.tsp",
    "Problem dimension": [
        441,
        202,
        101,
        228,
        57,
        174,
        82,
        290,
        406,
        124,
        203,
        156,
        13,
        322,
        478,
        73,
        83,
        49,
        266,
        389,
        16,
        296,
        206,
        395,
        444,
        208,
        20,
        178,
        240,
        418,
        431,
        207,
        270,
        399,
        0,
        109,
        78,
        151,
        379,
        371,
        75,
        68,
        169,
        309,
        254,
        372,
        158,
        421,
        251,
        92,
        388,
        38,
        98,
        52,
        467,
        3,
        93,
        401,
        449,
        146,
        210,
        260,
        87,
        307,
        226,
        247,
        336,
        229,
        253,
        121,
        433,
        272,
        192,
        1,
        319,
        386,
        261,
        103,
        440,
        495,
        475,
        179,
        483,
        71,
        321,
        356,
        429,
        491,
        378,
        287,
        282,
        173,
        27,
        347,
        301,
        302,
        134,
        404,
        359,
        62,
        268,
        58,
        86,
        351,
        471,
        249,
        490,
        72,
        34,
        300,
        346,
        427,
        456,
        344,
        21,
        468,
        136,
        139,
        51,
        481,
        323,
        274,
        411,
        298,
        132,
        184,
        44,
        117,
        405,
        231,
        384,
        382,
        166,
        94,
        128,
        329,
        152,
        398,
        462,
        122,
        349,
        465,
        242,
        26,
        263,
        79,
        325,
        250,
        305,
        413,
        17,
        191,
        284,
        161,
        65,
        100,
        355,
        317,
        463,
        243,
        162,
        392,
        37,
        160,
        116,
        435,
        2,
        409,
        447,
        143,
        332,
        107,
        218,
        412,
        396,
        326,
        113,
        306,
        328,
        70,
        341,
        76,
        126,
        414,
        7,
        149,
        64,
        219,
        14,
        400,
        238,
        36,
        170,
        292,
        289,
        420,
        50,
        144,
        493,
        499,
        66,
        255,
        312,
        148,
        380,
        314,
        335,
        115,
        343,
        364,
        187,
        361,
        259,
        224,
        454,
        74,
        222,
        95,
        288,
        48,
        419,
        55,
        354,
        137,
        217,
        368,
        91,
        286,
        196,
        204,
        442,
        177,
        40,
        245,
        316,
        265,
        470,
        221,
        277,
        59,
        494,
        205,
        241,
        43,
        315,
        53,
        32,
        175,
        318,
        96,
        313,
        472,
        30,
        47,
        195,
        295,
        497,
        303,
        29,
        31,
        338,
        88,
        339,
        142,
        324,
        281,
        42,
        415,
        394,
        402,
        235,
        293,
        106,
        422,
        362,
        176,
        408,
        311,
        397,
        56,
        452,
        257,
        350,
        407,
        97,
        428,
        147,
        129,
        4,
        327,
        459,
        105,
        108,
        487,
        474,
        269,
        374,
        304,
        154,
        333,
        279,
        185,
        383,
        430,
        464,
        5,
        436,
        358,
        180,
        60,
        403,
        61,
        460,
        11,
        377,
        153,
        46,
        258,
        197,
        291,
        489,
        141,
        275,
        373,
        492,
        199,
        138,
        363,
        198,
        390,
        227,
        466,
        451,
        461,
        33,
        167,
        130,
        446,
        133,
        484,
        424,
        445,
        273,
        211,
        479,
        387,
        171,
        119,
        498,
        416,
        193,
        63,
        365,
        337,
        213,
        181,
        439,
        114,
        340,
        9,
        140,
        348,
        110,
        280,
        264,
        283,
        278,
        486,
        24,
        423,
        25,
        360,
        212,
        85,
        19,
        246,
        457,
        234,
        186,
        267,
        426,
        54,
        125,
        252,
        417,
        480,
        189,
        381,
        135,
        310,
        223,
        172,
        89,
        8,
        131,
        297,
        331,
        482,
        123,
        342,
        165,
        285,
        366,
        220,
        163,
        410,
        39,
        256,
        225,
        201,
        294,
        164,
        262,
        10,
        157,
        90,
        434,
        357,
        188,
        453,
        159,
        22,
        248,
        352,
        45,
        214,
        330,
        385,
        432,
        320,
        6,
        367,
        112,
        485,
        145,
        496,
        69,
        168,
        84,
        200,
        458,
        448,
        469,
        375,
        183,
        438,
        299,
        99,
        353,
        437,
        230,
        41,
        215,
        120,
        232,
        194,
        443,
        216,
        67,
        391,
        28,
        369,
        334,
        244,
        209,
        473,
        455,
        127,
        118,
        488,
        308,
        393,
        182,
        155,
        23,
        81,
        425,
        190,
        18,
        150,
        233,
        236,
        77,
        276,
        102,
        370,
        111,
        271,
        239,
        15,
        477,
        12,
        450,
        376,
        476,
        345,
        104,
        237,
        80,
        35
    ],
    "Global Optimum": 0,
    "Algorithm": "Genetic algorithm",
    "Parameters": {
        "population": 30,
        "offspring": 30,
        "mutation probability": 0.002,
        "crossover probability": 0.9
    },
    "Fitness": 641132,
    "Solution": [
        441,
        202,
        101,
        228,
        57,
        174,
        82,
        290,
        406,
        124,
        203,
        156,
        13,
        322,
        478,
        73,
        83,
        49,
        266,
        389,
        16,
        296,
        206,
        395,
        444,
        208,
        20,
        178,
        240,
        418,
        431,
        207,
        270,
        399,
        0,
        109,
        78,
        151,
        379,
        371,
        75,
        68,
        169,
        309,
        254,
        372,
        158,
        421,
        251,
        92,
        388,
        38,
        98,
        52,
        467,
        3,
        93,
        401,
        449,
        146,
        210,
        260,
        87,
        307,
        226,
        247,
        336,
        229,
        253,
        121,
        433,
        272,
        192,
        1,
        319,
        386,
        261,
        103,
        440,
        495,
        475,
        179,
        483,
        71,
        321,
        356,
        429,
        491,
        378,
        287,
        282,
        173,
        27,
        347,
        301,
        302,
        134,
        404,
        359,
        62,
        268,
        58,
        86,
        351,
        471,
        249,
        490,
        72,
        34,
        300,
        346,
        427,
        456,
        344,
        21,
        468,
        136,
        139,
        51,
        481,
        323,
        274,
        411,
        298,
        132,
        184,
        44,
        117,
        405,
        231,
        384,
        382,
        166,
        94,
        128,
        329,
        152,
        398,
        462,
        122,
        349,
        465,
        242,
        26,
        263,
        79,
        325,
        250,
        305,
        413,
        17,
        191,
        284,
        161,
        65,
        100,
        355,
        317,
        463,
        243,
        162,
        392,
        37,
        160,
        116,
        435,
        2,
        409,
        447,
        143,
        332,
        107,
        218,
        412,
        396,
        326,
        113,
        306,
        328,
        70,
        341,
        76,
        126,
        414,
        7,
        149,
        64,
        219,
        14,
        400,
        238,
        36,
        170,
        292,
        289,
        420,
        50,
        144,
        493,
        499,
        66,
        255,
        312,
        148,
        380,
        314,
        335,
        115,
        343,
        364,
        187,
        361,
        259,
        224,
        454,
        74,
        222,
        95,
        288,
        48,
        419,
        55,
        354,
        137,
        217,
        368,
        91,
        286,
        196,
        204,
        442,
        177,
        40,
        245,
        316,
        265,
        470,
        221,
        277,
        59,
        494,
        205,
        241,
        43,
        315,
        53,
        32,
        175,
        318,
        96,
        313,
        472,
        30,
        47,
        195,
        295,
        497,
        303,
        29,
        31,
        338,
        88,
        339,
        142,
        324,
        281,
        42,
        415,
        394,
        402,
        235,
        293,
        106,
        422,
        362,
        176,
        408,
        311,
        397,
        56,
        452,
        257,
        350,
        407,
        97,
        428,
        147,
        129,
        4,
        327,
        459,
        105,
        108,
        487,
        474,
        269,
        374,
        304,
        154,
        333,
        279,
        185,
        383,
        430,
        464,
        5,
        436,
        358,
        180,
        60,
        403,
        61,
        460,
        11,
        377,
        153,
        46,
        258,
        197,
        291,
        489,
        141,
        275,
        373,
        492,
        199,
        138,
        363,
        198,
        390,
        227,
        466,
        451,
        461,
        33,
        167,
        130,
        446,
        133,
        484,
        424,
        445,
        273,
        211,
        479,
        387,
        171,
        119,
        498,
        416,
        193,
        63,
        365,
        337,
        213,
        181,
        439,
        114,
        340,
        9,
        140,
        348,
        110,
        280,
        264,
        283,
        278,
        486,
        24,
        423,
        25,
        360,
        212,
        85,
        19,
        246,
        457,
        234,
        186,
        267,
        426,
        54,
        125,
        252,
        417,
        480,
        189,
        381,
        135,
        310,
        223,
        172,
        89,
        8,
        131,
        297,
        331,
        482,
        123,
        342,
        165,
        285,
        366,
        220,
        163,
        410,
        39,
        256,
        225,
        201,
        294,
        164,
        262,
        10,
        157,
        90,
        434,
        357,
        188,
        453,
        159,
        22,
        248,
        352,
        45,
        214,
        330,
        385,
        432,
        320,
        6,
        367,
        112,
        485,
        145,
        496,
        69,
        168,
        84,
        200,
        458,
        448,
        469,
        375,
        183,
        438,
        299,
        99,
        353,
        437,
        230,
        41,
        215,
        120,
        232,
        194,
        443,
        216,
        67,
        391,
        28,
        369,
        334,
        244,
        209,
        473,
        455,
        127,
        118,
        488,
        308,
        393,
        182,
        155,
        23,
        81,
        425,
        190,
        18,
        150,
        233,
        236,
        77,
        276,
        102,
        370,
        111,
        271,
        239,
        15,
        477,
        12,
        450,
        376,
        476,
        345,
        104,
        237,
        80,
        35
    ],
    "Nb of functions evaluations": 50010,
    "Computational time in seconds": 372.51071786880493,
    "Stopping criterion in evaluations": 50000
}